3 100 1763
10 10 6 7 4 8 4 7 9 10
2 1 1
1 6
1
5
0 35.0 35.0 0.0 0.0 0 230
2 41.0 49.0 10.0 10.0 0 204 94 0 0 0 0 0 1 0 0 0 0
3 35.0 17.0 10.0 7.0 0 202 6 0 1 0 0 0 0 0 0 0 0
4 55.0 45.0 10.0 13.0 0 197 50 0 0 0 0 0 0 1 0 0 1
5 55.0 20.0 10.0 19.0 149 159 85 0 0 0 1 1 0 0 0 0 0
6 15.0 30.0 10.0 26.0 0 199 44 1 1 0 0 0 0 0 0 1 0
7 25.0 30.0 10.0 3.0 0 208 16 1 0 0 0 0 0 1 0 0 0
8 20.0 50.0 10.0 5.0 0 198 0 0 0 1 0 0 0 0 0 0 0
9 10.0 43.0 10.0 9.0 95 105 63 0 0 0 0 1 1 0 0 0 0
10 55.0 60.0 10.0 16.0 97 107 5 0 1 0 1 1 1 1 1 0 1
11 30.0 60.0 10.0 16.0 0 194 19 0 1 0 0 1 0 0 0 0 0
12 20.0 65.0 10.0 12.0 67 77 86 1 0 1 0 0 1 0 0 0 0
13 50.0 35.0 10.0 19.0 0 205 4 0 0 0 0 0 1 0 0 0 0
14 30.0 25.0 10.0 23.0 159 169 4 0 0 0 1 0 0 0 0 0 0
15 15.0 10.0 10.0 20.0 0 187 97 1 0 1 0 1 0 0 1 0 0
16 30.0 5.0 10.0 8.0 61 71 19 1 0 0 0 0 0 0 1 0 0
17 10.0 20.0 10.0 19.0 0 190 83 0 0 0 0 0 0 0 0 0 1
18 5.0 30.0 10.0 2.0 0 189 29 0 0 0 0 0 1 0 0 0 0
19 20.0 40.0 10.0 12.0 0 204 63 0 0 0 0 0 1 0 1 0 0
20 15.0 60.0 10.0 17.0 0 187 90 0 0 0 1 1 0 1 0 1 0
21 45.0 65.0 10.0 9.0 0 188 12 1 1 0 1 1 0 0 0 0 0
22 45.0 20.0 10.0 11.0 0 201 57 0 0 0 0 0 0 0 1 1 0
23 45.0 10.0 10.0 18.0 0 193 85 1 1 0 0 1 0 0 0 0 0
24 55.0 5.0 10.0 29.0 68 78 33 0 0 0 1 0 1 0 0 1 0
25 65.0 35.0 10.0 3.0 0 190 92 0 1 0 1 0 0 0 0 0 1
26 65.0 20.0 10.0 6.0 172 182 98 0 0 0 0 0 1 0 0 0 0
27 45.0 30.0 10.0 17.0 0 208 7 0 1 0 0 1 0 0 0 0 0
28 35.0 40.0 10.0 16.0 0 215 34 1 0 1 0 0 0 0 1 0 0
29 41.0 37.0 10.0 16.0 0 213 29 0 1 0 0 0 0 1 1 0 0
30 64.0 42.0 10.0 9.0 0 190 83 0 1 0 1 1 1 0 0 1 0
31 40.0 60.0 10.0 21.0 0 194 60 0 0 0 0 0 0 0 0 1 0
32 31.0 52.0 10.0 27.0 0 202 63 0 0 0 0 0 0 0 0 0 1
33 35.0 69.0 10.0 23.0 0 186 38 1 0 0 0 0 0 0 0 0 0
34 53.0 52.0 10.0 11.0 0 195 30 0 0 0 1 0 0 0 0 0 0
35 65.0 55.0 10.0 14.0 0 183 2 0 0 1 0 0 0 0 0 0 1
36 63.0 65.0 10.0 8.0 0 178 70 0 0 0 0 0 0 0 0 1 0
37 2.0 60.0 10.0 5.0 0 178 43 0 0 0 0 0 1 0 0 0 0
38 20.0 20.0 10.0 8.0 0 198 70 0 0 0 0 1 0 0 0 0 0
39 5.0 5.0 10.0 16.0 83 93 28 1 0 0 0 0 0 0 1 0 0
40 60.0 12.0 10.0 31.0 0 186 82 1 0 0 0 0 1 0 0 0 1
41 40.0 25.0 10.0 9.0 0 208 85 0 0 0 1 1 0 0 0 0 0
42 42.0 7.0 10.0 5.0 0 191 21 0 1 0 0 0 0 0 0 0 0
43 24.0 12.0 10.0 5.0 0 194 6 0 0 0 0 0 0 0 0 0 1
44 23.0 3.0 10.0 7.0 0 185 42 0 0 1 0 0 0 0 0 0 0
45 11.0 14.0 10.0 18.0 69 79 21 0 1 1 0 0 1 0 0 0 1
46 6.0 38.0 10.0 16.0 0 190 52 0 0 0 0 0 0 1 0 0 0
47 2.0 48.0 10.0 1.0 0 184 11 1 0 0 1 0 0 0 0 0 0
48 8.0 56.0 10.0 27.0 0 185 36 0 0 1 0 0 0 0 1 0 1
49 13.0 52.0 10.0 36.0 0 192 12 0 0 0 1 0 0 0 0 1 0
50 6.0 68.0 10.0 30.0 0 176 83 0 0 0 1 0 0 0 0 1 0
51 47.0 47.0 10.0 13.0 0 203 38 0 0 0 0 0 0 0 1 0 0
52 49.0 58.0 10.0 10.0 0 193 35 0 0 0 0 0 1 0 0 0 0
53 27.0 43.0 10.0 9.0 0 208 47 0 0 0 0 0 0 0 1 0 0
54 37.0 31.0 10.0 14.0 95 105 77 0 0 0 0 0 1 0 0 0 0
55 57.0 29.0 10.0 18.0 0 197 46 1 0 1 0 0 1 0 1 0 0
56 63.0 23.0 10.0 2.0 136 146 34 0 1 0 0 0 0 0 0 1 0
57 53.0 12.0 10.0 6.0 0 190 72 0 0 0 1 1 0 0 0 0 0
58 32.0 12.0 10.0 7.0 0 196 35 0 0 0 0 0 0 0 0 1 0
59 36.0 26.0 10.0 18.0 200 210 86 0 0 0 0 0 1 0 0 0 0
60 21.0 24.0 10.0 28.0 0 202 92 0 0 0 1 0 1 0 0 0 1
61 17.0 34.0 10.0 3.0 0 201 21 0 0 0 0 0 1 0 0 0 0
62 12.0 24.0 10.0 13.0 0 194 97 0 0 1 0 0 0 1 0 1 1
63 24.0 58.0 10.0 19.0 58 68 78 0 0 0 0 1 0 1 1 0 1
64 27.0 69.0 10.0 10.0 0 185 48 0 1 1 1 0 1 1 0 0 1
65 15.0 77.0 10.0 9.0 0 173 48 0 0 0 0 0 0 1 0 0 0
66 62.0 77.0 10.0 20.0 0 170 33 0 0 0 0 0 1 0 0 0 0
67 49.0 73.0 10.0 25.0 0 179 28 1 0 0 0 0 1 0 0 0 1
68 67.0 5.0 10.0 25.0 83 93 65 1 0 1 0 0 0 0 0 0 1
69 56.0 39.0 10.0 36.0 0 198 28 1 0 0 0 0 0 0 0 0 0
70 37.0 47.0 10.0 6.0 50 60 13 0 0 0 0 0 1 1 0 0 0
71 37.0 56.0 10.0 5.0 0 198 40 1 0 0 0 0 1 0 0 0 0
72 57.0 68.0 10.0 15.0 0 180 56 0 1 0 0 1 1 0 1 1 1
73 47.0 16.0 10.0 25.0 0 197 68 0 0 1 0 0 0 0 0 1 0
74 44.0 17.0 10.0 9.0 0 199 17 0 0 0 0 0 0 0 0 0 1
75 46.0 13.0 10.0 8.0 149 159 79 1 0 0 0 0 0 0 0 0 0
76 49.0 11.0 10.0 18.0 0 192 71 0 1 0 0 0 0 0 0 0 1
77 49.0 42.0 10.0 13.0 73 83 34 0 0 0 1 0 1 0 0 1 0
78 53.0 43.0 10.0 14.0 179 189 10 0 0 0 0 0 0 0 0 0 1
79 61.0 52.0 10.0 3.0 0 188 98 1 0 0 0 0 0 0 1 0 0
80 57.0 48.0 10.0 23.0 92 102 46 0 0 1 0 1 0 0 0 0 0
81 56.0 37.0 10.0 6.0 0 198 72 0 0 0 1 0 0 1 0 0 1
82 55.0 54.0 10.0 26.0 0 192 94 1 0 0 0 0 1 0 0 0 0
83 15.0 47.0 10.0 16.0 0 196 7 1 1 0 0 0 0 0 0 0 0
84 14.0 37.0 10.0 11.0 0 198 17 0 0 0 0 0 0 1 0 0 0
85 11.0 31.0 10.0 7.0 101 111 27 1 0 0 0 0 0 1 0 0 0
86 16.0 22.0 10.0 41.0 0 196 63 0 1 0 0 0 0 1 0 0 1
87 4.0 18.0 10.0 35.0 0 184 40 0 0 0 1 0 0 0 0 0 0
88 28.0 18.0 10.0 26.0 93 103 12 1 0 0 0 1 1 1 0 1 0
89 26.0 52.0 10.0 9.0 0 200 7 0 0 0 0 1 1 0 0 1 0
90 26.0 35.0 10.0 15.0 0 211 51 1 0 1 0 0 1 0 1 0 0
91 31.0 67.0 10.0 3.0 0 187 45 0 0 0 1 1 0 0 0 0 0
92 15.0 19.0 10.0 1.0 0 194 56 0 0 0 0 0 1 0 0 0 0
93 22.0 22.0 10.0 2.0 18 28 36 0 0 1 0 1 0 1 0 0 0
94 18.0 24.0 10.0 22.0 0 199 94 0 0 0 0 0 0 0 0 1 0
95 26.0 27.0 10.0 27.0 0 207 94 0 1 0 0 0 0 0 0 1 1
96 25.0 24.0 10.0 20.0 0 205 83 0 0 0 0 0 1 0 1 0 0
97 22.0 27.0 10.0 11.0 0 204 30 0 0 0 0 0 1 0 1 0 0
98 25.0 21.0 10.0 12.0 0 202 60 1 0 0 0 0 0 0 0 1 0
99 19.0 21.0 10.0 10.0 0 198 78 0 0 0 0 0 0 1 0 0 0
100 20.0 26.0 10.0 9.0 83 93 11 0 0 0 0 0 0 0 1 0 0
101 18.0 18.0 10.0 17.0 185 195 21 0 0 0 0 0 0 1 0 0 0